200
120 120
1 84 785
2 84 139
3 83 233
4 83 185
5 83 806
6 83 624
7 82 581
8 82 723
9 81 29
10 81 917
11 81 680
12 80 86
13 80 324
14 80 198
15 80 816
16 80 553
17 78 892
18 78 954
19 78 601
20 77 522
21 77 63
22 77 483
23 77 521
24 76 972
25 76 838
26 75 239
27 75 178
28 74 586
29 74 212
30 74 308
31 73 673
32 73 387
33 72 387
34 72 0
35 71 565
36 71 514
37 71 610
38 71 397
39 70 316
40 70 430
41 70 17
42 69 663
43 69 184
44 68 309
45 68 102
46 68 820
47 67 785
48 66 851
49 66 665
50 66 352
51 65 426
52 65 355
53 65 129
54 65 620
55 65 451
56 65 419
57 64 806
58 64 431
59 64 998
60 64 146
61 63 788
62 63 222
63 62 252
64 62 130
65 62 738
66 62 354
67 62 783
68 61 681
69 61 956
70 61 919
71 60 647
72 60 614
73 59 376
74 59 698
75 58 762
76 58 662
77 58 614
78 58 983
79 57 706
80 57 775
81 57 362
82 57 409
83 56 101
84 56 298
85 55 384
86 55 13
87 55 774
88 54 413
89 54 463
90 54 727
91 53 663
92 52 101
93 52 141
94 52 389
95 51 977
96 51 292
97 51 778
98 50 953
99 49 756
100 49 629
101 49 178
102 49 19
103 48 326
104 48 434
105 48 892
106 48 264
107 48 112
108 47 378
109 47 932
110 46 303
111 45 17
112 45 518
113 45 436
114 44 638
115 44 893
116 44 99
117 44 785
118 43 283
119 43 258
120 43 240
121 42 539
122 42 877
123 42 445
124 42 1
125 42 686
126 42 646
127 41 855
128 39 192
129 39 764
130 39 594
131 39 467
132 39 669
133 38 113
134 38 282
135 37 320
136 37 862
137 37 777
138 36 511
139 36 573
140 36 637
141 35 306
142 35 192
143 35 614
144 34 372
145 34 717
146 34 541
147 33 217
148 32 669
149 32 382
150 32 389
151 32 71
152 32 969
153 31 436
154 31 474
155 30 609
156 30 945
157 30 667
158 30 659
159 30 539
160 29 602
161 28 706
162 28 74
163 28 996
164 28 885
165 26 638
166 25 229
167 25 895
168 25 48
169 24 401
170 24 300
171 23 98
172 23 50
173 23 362
174 22 532
175 22 978
176 22 466
177 21 958
178 21 239
179 21 997
180 21 102
181 20 896
182 20 874
183 20 870
184 19 777
185 19 404
186 18 208
187 18 802
188 17 521
189 17 651
190 17 203
191 17 71
192 17 691
193 17 865
194 17 303
195 16 697
196 16 637
197 14 776
198 14 540
199 13 628
200 12 58
